
Log started (V12.8.0.0) Wed Aug 29 20:12:21 2018

New value for time limit in seconds: 500
CPXPARAM_TimeLimit                               500
CPXPARAM_Emphasis_Numerical                      1
CPXPARAM_Parallel                                -1
CPXPARAM_Benders_Strategy                        3
CPXPARAM_MIP_Tolerances_Integrality              9.9999999999999995e-08
CPXPARAM_MIP_Pool_AbsGap                         0
Tried aggregator 4 times.
MIP Presolve eliminated 10068 rows and 4608 columns.
Aggregator did 1835 substitutions.
Reduced MIP has 4271 rows, 4578 columns, and 17007 nonzeros.
Reduced MIP has 22 binaries, 0 generals, 0 SOSs, and 0 indicators.
Presolve time = 0.03 sec. (23.50 ticks)
Found incumbent of value 0.971056 after 0.07 sec. (43.99 ticks)
Tried aggregator 1 time.
Reduced MIP has 4271 rows, 4578 columns, and 17007 nonzeros.
Reduced MIP has 22 binaries, 0 generals, 0 SOSs, and 0 indicators.
Presolve time = 0.01 sec. (4.58 ticks)

        Nodes                                         Cuts/
   Node  Left     Objective  IInf  Best Integer    Best Bound    ItCnt     Gap

      0     0      110.0000                       Benders: 10        0         
      0     0      110.0000                        Benders: 2        1         
      0     0      110.0000                        Benders: 1        4         
      0     0      110.0000                        Benders: 1        5         
      0     0      110.0000                        Benders: 1        7         
      0     0      110.0000                        Benders: 2        9         
      0     0      110.0000                        Benders: 1       11         
      0     0      110.0000                        Benders: 2       13         
      0     0      110.0000                        Benders: 1       14         
      0     0      110.0000                        Benders: 1       15         
Tried aggregator 1 time.
MIP Presolve modified 256 coefficients.
Reduced MIP has 23 rows, 32 columns, and 211 nonzeros.
Reduced MIP has 22 binaries, 0 generals, 0 SOSs, and 0 indicators.
Presolve time = 0.00 sec. (0.05 ticks)
Probing time = 0.00 sec. (0.01 ticks)
Tried aggregator 1 time.
Reduced MIP has 23 rows, 32 columns, and 211 nonzeros.
Reduced MIP has 22 binaries, 0 generals, 0 SOSs, and 0 indicators.
Presolve time = 0.00 sec. (0.05 ticks)
Probing time = 0.00 sec. (0.01 ticks)
MIP emphasis: balance optimality and feasibility.
MIP search method: dynamic search.
Parallel mode: opportunistic, using up to 8 threads.
Root relaxation solution time = 0.00 sec. (0.05 ticks)
*     0+    0                            0.9711      110.0000              --- 
      0     0      110.0000     5        0.9711      110.0000       33     --- 
*     0+    0                            8.0739      110.0000              --- 
      0     0      110.0000     5        8.0739       Cuts: 5       35     --- 
      0     0      110.0000     8        8.0739      Fract: 3       36     --- 
      0     0      110.0000     4        8.0739       Cuts: 2       38     --- 

Repeating presolve.
Tried aggregator 1 time.
Reduced MIP has 23 rows, 32 columns, and 211 nonzeros.
Reduced MIP has 22 binaries, 0 generals, 0 SOSs, and 0 indicators.
Presolve time = 0.00 sec. (0.05 ticks)
Probing time = 0.00 sec. (0.01 ticks)
Tried aggregator 1 time.
Reduced MIP has 23 rows, 32 columns, and 211 nonzeros.
Reduced MIP has 22 binaries, 0 generals, 0 SOSs, and 0 indicators.
Presolve time = 0.00 sec. (0.05 ticks)
Represolve time = 0.00 sec. (0.82 ticks)
Probing time = 0.00 sec. (0.01 ticks)
MIP emphasis: balance optimality and feasibility.
MIP search method: dynamic search.
Parallel mode: opportunistic, using up to 8 threads.
Root relaxation solution time = 0.00 sec. (0.35 ticks)
*     0+    0                            8.0739      110.0000              --- 
      0     0      110.0000     9        8.0739      110.0000       79     --- 
      0     0      110.0000     8        8.0739       Cuts: 4       82     --- 
      0     0      109.9629     8        8.0739      Fract: 5       87     --- 
*     0+    0                            8.4963      109.9629              --- 
*     0+    0                            8.5480     Cuts: 142              --- 
      0     2      109.9629     8        8.5480      109.9629       87     --- 
Elapsed time = 0.82 sec. (648.72 ticks, tree = 0.01 MB, solutions = 1)
*     4+    1                            9.2147      109.8514              --- 
*    12+    8                           49.3560      108.9162           120.67%
     34    24        cutoff             49.3560      108.9162      219  120.67%
*    44+    5                           49.3560      108.9162           120.67%
    193    56       56.6387     5       54.0559      108.9162     1348  101.49%
    542    47       54.1620     5       54.1196       79.9760     1340   47.78%
   1211   115       56.6865     6       54.1196       56.8048     4621    4.96%

Benders cuts applied:  1205
Mixed integer rounding cuts applied:  3
Gomory fractional cuts applied:  8

Root node processing (before b&c):
  Real time             =    0.69 sec. (647.63 ticks)
Parallel b&c, 8 threads:
  Real time             =    1.52 sec. (1144.14 ticks)
  Sync time (average)   =    0.08 sec.
  Wait time (average)   =    0.01 sec.
                          ------------
Total (root+branch&cut) =    2.21 sec. (1791.77 ticks)

Solution pool: 1 solution saved.

MIP - Integer optimal solution:  Objective =  5.4119649071e+01
Solution time =    2.21 sec.  Iterations = 9762  Nodes = 1546 (1)
Deterministic time = 1792.62 ticks  (810.58 ticks/sec)


Solution pool written to file 'lsgcp_a7_b0_n1.sol'.
Current MIP best bound =  5.4119649071e+01 (gap = -0, 0.00%)
